(declare-const a Real)
(declare-const b Real)
(declare-const c Real)
(assert (= (+ (* a b) (* b c) (* c a)) 1))
(assert (<= (* a b c (+ a b c)) (* 1 (pow 3 -1))))
(assert (> a 0))
(assert (> b 0))
(assert (> c 0))
(check-sat)
(get-model)
(exit)